40	100	100	100
77	70	3
89	67	36
72	70	2
99	77	27
90	72	11
70	76	43
76	70	35
84	73	23
95	83	31
74	71	48
99	74	3
74	87	20
71	94	41
83	67	31
76	76	39
69	69	36
70	90	45
86	91	2
68	83	27
83	66	47
78	92	6
92	87	26
98	88	9
88	91	26
96	93	42
77	75	37
87	89	35
83	78	10
67	83	38
74	97	17
70	79	39
90	81	36
75	99	23
76	76	42
83	93	31
68	92	28
77	97	12
86	86	5
84	85	16
81	74	26
